n_machines = 10;
n_resources = 20;
n_jobs = 108;
horizon = 5180;
LB = 518;
n_jobs_per_resource = [2, 4, 3, 8, 4, 7, 9, 8, 2, 6, 2, 6, 9, 6, 8, 5, 6, 6, 2, 5];
duration = [43, 27, 31, 52, 33, 66, 51, 19, 41, 18, 56, 65, 24, 67, 52, 67, 14, 23, 31, 70, 87, 38, 36, 85, 49, 74, 75, 67, 60, 66, 46, 62, 9, 57, 89, 30, 4, 2, 75, 57, 41, 50, 26, 91, 65, 65, 71, 51, 75, 28, 92, 28, 5, 37, 78, 18, 45, 6, 75, 37, 35, 55, 1, 61, 61, 45, 21, 80, 35, 92, 80, 21, 94, 33, 24, 50, 79, 79, 18, 5, 22, 53, 20, 77, 74, 44, 38, 75, 54, 74, 87, 59, 65, 21, 22, 16, 1, 48, 10, 36, 25, 68, 72, 91, 30, 16, 23, 88]